#===============================================================================
# Created using the Atomic Simulation Environment (ASE)

# Wed Aug  6 13:21:35 2025

#=======================================================
lattice_vector 2.4594999999999998 0.0000000000000000 0.0000000000000000 
lattice_vector 1.2297499999999999 2.1299899999999998 0.0000000000000000 
lattice_vector 0.0000000000000000 0.0000000000000000 100.0000000000000000 
atom 0.0000000000000000 0.0000000000000000 48.3249999499999987 C
atom 1.2297499999999999 0.7099965000000000 48.3249999499999987 C
atom 3.6892499999999999 2.1299899999999998 51.6750000500000013 C
atom 2.4594999999999998 1.4199934999999999 51.6750000500000013 C
